tsp_instances/TSP50/instance11.tsp
NODE_COORD_SECTION
0 117 7
1 190 67
2 117 183
3 96 144
4 189 134
5 35 149
6 126 176
7 14 101
8 139 89
9 161 40
10 192 82
11 183 150
12 92 188
13 131 57
14 170 199
15 187 140
16 58 90
17 141 167
18 127 3
19 126 85
20 83 162
21 3 166
22 162 39
23 132 138
24 25 191
25 124 82
26 116 121
27 140 105
28 172 56
29 143 199
30 4 71
31 70 200
32 127 184
33 25 134
34 73 43
35 48 48
36 110 159
37 185 12
38 196 32
39 0 191
40 95 28
41 159 110
42 43 114
43 178 86
44 152 120
45 112 187
46 14 69
47 68 125
48 56 163
49 51 156
