tsp_instances/TSP50/instance11.opt.tour
TOUR_SECTION
1
19
38
39
2
11
44
29
23
10
14
26
20
9
28
27
24
45
42
5
16
12
15
30
18
7
33
3
46
13
32
25
40
22
34
6
50
49
21
37
4
48
17
43
8
31
47
36
35
41
-1